NAME : covtype.-5126267.tour
COMMENT : Length = -5126267
COMMENT : Found by LKH [Keld Helsgaun] Fri Jul  2 10:21:01 2021
TYPE : TOUR
DIMENSION : 54
TOUR_SECTION
1
3
6
11
43
16
17
23
19
25
42
40
41
21
22
53
48
50
39
18
30
51
15
34
29
31
32
49
44
36
12
37
47
45
26
54
35
38
33
28
52
20
14
24
27
46
13
10
8
2
9
7
4
5
-1
EOF
